Optimal - objective value 2752.00000000
      0 x_0_1                  0                     295
      1 x_0_2                  0                      93
      2 x_0_3                  1                      77
      3 x_0_4                  0                       0
      4 x_1_0                  0                     533
      5 x_1_2                  0                       0
      6 x_1_3                  0                     214
      7 x_1_4                  1                       0
      8 x_2_0                  0                     331
      9 x_2_1                  1                       0
     10 x_2_3                  0                     167
     11 x_2_4                  0                       0
     12 x_3_0                  0                     148
     13 x_3_1                  0                      47
     14 x_3_2                  1                       0
     15 x_3_4                  0                     194
     16 x_4_0                  1                     238
     17 x_4_1                  0                       0
     18 x_4_2                  0                       0
     19 x_4_3                  0                     361
     20 u_1                    3                       0
     21 u_2                    2                       0
     22 u_3                    1                       0
     23 u_4                    4                       0
